; 
(set-info :status unknown)
(declare-fun node_0x7ffff172c550 () (_ BitVec 1))
(declare-fun node_0x7ffff172c9f0 () (_ BitVec 1))
(declare-fun ccso_node_0x7ffff1738220 () (_ BitVec 32))
(declare-fun ine_0x7ffff1738960 () (_ BitVec 1))
(declare-fun fogt_0x7ffff173af00 () (_ BitVec 1))
(declare-fun carg_node_0x7ffff172b240 () (_ BitVec 64))
(declare-fun node_0x7ffff173aa90 () (_ BitVec 64))
(declare-fun LdMem_0x7ffff173ac30 () (_ BitVec 64))
(declare-fun parg_node_0x12122540 () (_ BitVec 64))
(declare-fun StMem_0x121221f0 () (_ BitVec 64))
(declare-fun R0x7ffff172aca0 () (_ BitVec 1))
(declare-fun carg_node_0x7ffff172ba80 () (_ BitVec 64))
(declare-fun carg_node_0x7ffff06e1b40_CS0x4148268 () (_ BitVec 64))
(declare-fun carg_node_0x7ffff172bc00 () (_ BitVec 64))
(declare-fun carg_node_0x7ffff06e1ce0_CS0x4148268 () (_ BitVec 64))
(declare-fun node_0x7ffff1737c50 () (_ BitVec 64))
(declare-fun carg_node_0x7ffff06e1940_CS0x4148268 () (_ BitVec 64))
(declare-fun fsub_0x7ffff1737df0 () (_ BitVec 64))
(declare-fun fmul_0x7ffff1737a20 () (_ BitVec 64))
(declare-fun node_0x7ffff172e1e0 () (_ BitVec 64))
(declare-fun node_0x7ffff172e550 () (_ BitVec 64))
(declare-fun node_0x7ffff1737880 () (_ BitVec 64))
(declare-fun node_0x7ffff17374b0 () (_ BitVec 64))
(declare-fun fadd_0x7ffff1737650 () (_ BitVec 64))
(declare-fun fmul_0x7ffff1737280 () (_ BitVec 64))
(declare-fun node_0x7ffff17370e0 () (_ BitVec 64))
(declare-fun fmul_0x7ffff172e6f0 () (_ BitVec 64))
(declare-fun carg_node_0x7ffff172b900 () (_ BitVec 64))
(declare-fun node_0x7ffff1736d50 () (_ BitVec 64))
(declare-fun fmul_0x7ffff1736ef0 () (_ BitVec 64))
(declare-fun node_0x7ffff1733560 () (_ BitVec 64))
(declare-fun fsub_0x7ffff1733700 () (_ BitVec 64))
(declare-fun carg_node_0x7ffff172b0e0 () (_ BitVec 64))
(declare-fun node_0x7ffff17330f0 () (_ BitVec 64))
(declare-fun LdMem_0x7ffff1733290 () (_ BitVec 64))
(declare-fun pcso_node_0x1211b470 () (_ BitVec 64))
(declare-fun StMem_0x1211b650 () (_ BitVec 64))
(declare-fun node_0x7ffff1736980 () (_ BitVec 64))
(declare-fun fmul_0x7ffff1736b20 () (_ BitVec 64))
(declare-fun fmul_0x7ffff172e360 () (_ BitVec 64))
(declare-fun carg_node_0x7ffff172b780 () (_ BitVec 64))
(declare-fun node_0x7ffff17365f0 () (_ BitVec 64))
(declare-fun fmul_0x7ffff1736790 () (_ BitVec 64))
(declare-fun node_0x7ffff1732920 () (_ BitVec 64))
(declare-fun fsub_0x7ffff1732ac0 () (_ BitVec 64))
(declare-fun carg_node_0x7ffff172b590 () (_ BitVec 64))
(declare-fun node_0x7ffff17324d0 () (_ BitVec 64))
(declare-fun LdMem_0x7ffff1732650 () (_ BitVec 64))
(declare-fun pcso_node_0x1211bc60 () (_ BitVec 64))
(declare-fun StMem_0x1211be10 () (_ BitVec 64))
(declare-fun node_0x7ffff1736220 () (_ BitVec 64))
(declare-fun carg_node_0x7ffff06e17e0_CS0x4148268 () (_ BitVec 64))
(declare-fun fmul_0x7ffff17363c0 () (_ BitVec 64))
(declare-fun node_0x7ffff1735d10 () (_ BitVec 64))
(declare-fun fadd_0x7ffff1735eb0 () (_ BitVec 64))
(declare-fun fmul_0x7ffff1735ae0 () (_ BitVec 64))
(declare-fun node_0x7ffff1735940 () (_ BitVec 64))
(declare-fun node_0x7ffff1735570 () (_ BitVec 64))
(declare-fun fmul_0x7ffff1735710 () (_ BitVec 64))
(declare-fun node_0x7ffff1735100 () (_ BitVec 64))
(declare-fun LdMem_0x7ffff17305e0 () (_ BitVec 64))
(declare-fun pcso_node_0x12117e10 () (_ BitVec 64))
(declare-fun StMem_0x12117fc0 () (_ BitVec 64))
(declare-fun node_0x7ffff1734930 () (_ BitVec 64))
(declare-fun fmul_0x7ffff1734ad0 () (_ BitVec 64))
(declare-fun node_0x7ffff1734150 () (_ BitVec 64))
(declare-fun fmul_0x7ffff1734700 () (_ BitVec 64))
(declare-fun node_0x7ffff1733d30 () (_ BitVec 64))
(declare-fun LdMem_0x7ffff172ed80 () (_ BitVec 64))
(declare-fun pcso_node_0x12118610 () (_ BitVec 64))
(declare-fun StMem_0x121187c0 () (_ BitVec 64))
(declare-fun node_0x7ffff1731ac0 () (_ BitVec 64))
(declare-fun carg_node_0x7ffff06e1570_CS0x4148268 () (_ BitVec 64))
(declare-fun fadd_0x7ffff1731c60 () (_ BitVec 64))
(declare-fun fmul_0x7ffff1731890 () (_ BitVec 64))
(declare-fun node_0x7ffff1731510 () (_ BitVec 64))
(declare-fun node_0x7ffff1731140 () (_ BitVec 64))
(declare-fun fmul_0x7ffff17312e0 () (_ BitVec 64))
(declare-fun node_0x7ffff1730cd0 () (_ BitVec 64))
(declare-fun node_0x7ffff1730440 () (_ BitVec 64))
(declare-fun node_0x7ffff172fc50 () (_ BitVec 64))
(declare-fun fmul_0x7ffff172fdf0 () (_ BitVec 64))
(declare-fun node_0x7ffff172f880 () (_ BitVec 64))
(declare-fun fmul_0x7ffff172fa20 () (_ BitVec 64))
(declare-fun node_0x7ffff172f410 () (_ BitVec 64))
(declare-fun node_0x7ffff172ec00 () (_ BitVec 64))
(declare-fun return_node_0x7ffff06e1fc0_CS0x4148268 () (_ BitVec 32))
(declare-fun node_0x1211b120 () (_ BitVec 64))
(declare-fun parg_node_0x107ae730_CS0x4146978 () (_ BitVec 64))
(declare-fun LdMem_0x1211aad0 () (_ BitVec 64))
(declare-fun parg_node_0x1211adf0 () (_ BitVec 64))
(declare-fun StMem_0x1211ac40 () (_ BitVec 64))
(declare-fun node_0x107b0280_CS0x4146978 () (_ BitVec 64))
(declare-fun node_0x1211c2f0 () (_ BitVec 64))
(declare-fun parg_node_0x107adc10_CS0x4146978 () (_ BitVec 64))
(declare-fun LdMem_0x12119f60 () (_ BitVec 64))
(declare-fun parg_node_0x1211a1b0 () (_ BitVec 64))
(declare-fun StMem_0x1211a0a0 () (_ BitVec 64))
(declare-fun node_0x107af910_CS0x4146978 () (_ BitVec 64))
(declare-fun node_0x12119e20 () (_ BitVec 64))
(declare-fun parg_node_0x107b61b0_CS0x41455c8 () (_ BitVec 64))
(declare-fun LdMem_0x12117a90 () (_ BitVec 64))
(declare-fun parg_node_0x12117ce0 () (_ BitVec 64))
(declare-fun StMem_0x12117bd0 () (_ BitVec 64))
(declare-fun node_0x107b7d30_CS0x41455c8 () (_ BitVec 64))
(declare-fun node_0x7c37ea0 () (_ BitVec 64))
(declare-fun parg_node_0x107b5690_CS0x41455c8 () (_ BitVec 64))
(declare-fun LdMem_0x12117710 () (_ BitVec 64))
(declare-fun parg_node_0x12117960 () (_ BitVec 64))
(declare-fun StMem_0x12117850 () (_ BitVec 64))
(declare-fun node_0x107b7470_CS0x41455c8 () (_ BitVec 64))
(declare-fun carg_node_0x7ffff172be90 () (_ BitVec 64))
(assert
 (let (($x188 (= node_0x7ffff172c550 (_ bv1 1))))
 (let (($x243028 (= node_0x7ffff172c9f0 (_ bv1 1))))
 (and $x243028 $x188))))
(assert
 (let (($x104 (= ine_0x7ffff1738960 (ite (and (distinct ccso_node_0x7ffff1738220 (_ bv0 32)) true) (_ bv1 1) (_ bv0 1)))))
 (let (($x540 (= fogt_0x7ffff173af00 (ite (bvsgt node_0x7ffff173aa90 carg_node_0x7ffff172b240) (_ bv1 1) (_ bv0 1)))))
 (let (($x165 (= node_0x7ffff173aa90 LdMem_0x7ffff173ac30)))
 (let (($x463 (= LdMem_0x7ffff173ac30 StMem_0x121221f0)))
 (and (or (not (= R0x7ffff172aca0 (_ bv1 1))) $x463) $x463 (= StMem_0x121221f0 parg_node_0x12122540) $x165 $x540 (= node_0x7ffff172c9f0 fogt_0x7ffff173af00) (= node_0x7ffff172c550 ine_0x7ffff1738960) $x104))))))
(assert
 (= carg_node_0x7ffff06e1b40_CS0x4148268 carg_node_0x7ffff172ba80))
(assert
 (= carg_node_0x7ffff06e1ce0_CS0x4148268 carg_node_0x7ffff172bc00))
(assert
 (= carg_node_0x7ffff06e1940_CS0x4148268 node_0x7ffff1737c50))
(assert
 (let (($x580 (= node_0x7ffff1737c50 fsub_0x7ffff1737df0)))
 (let (($x255 (or (or (= node_0x7ffff172e550 (_ bv0 64)) (= node_0x7ffff172e1e0 (_ bv0 64))) (and (distinct fmul_0x7ffff1737a20 (_ bv0 64)) true))))
 (let (($x252 (= fmul_0x7ffff1737a20 (bvmul node_0x7ffff172e550 node_0x7ffff172e1e0))))
 (let (($x256 (and $x252 $x255)))
 (let (($x272 (= node_0x7ffff1737880 fmul_0x7ffff1737a20)))
 (let (($x123 (= fsub_0x7ffff1737df0 (bvsub node_0x7ffff17374b0 node_0x7ffff1737880))))
 (let (($x598 (= node_0x7ffff17374b0 fadd_0x7ffff1737650)))
 (let (($x563 (= node_0x7ffff17370e0 fmul_0x7ffff1737280)))
 (let (($x244 (= carg_node_0x7ffff172b900 (_ bv0 64))))
 (let ((?x242 (bvmul carg_node_0x7ffff172b900 carg_node_0x7ffff172b900)))
 (let (($x243 (= fmul_0x7ffff172e6f0 ?x242)))
 (let (($x248 (and $x243 (or (or $x244 $x244) (and (distinct fmul_0x7ffff172e6f0 (_ bv0 64)) true)))))
 (let (($x544 (= node_0x7ffff172e550 fmul_0x7ffff172e6f0)))
 (let (($x214 (or (or (= node_0x7ffff1736d50 (_ bv0 64)) (= node_0x7ffff172e550 (_ bv0 64))) (and (distinct fmul_0x7ffff1737280 (_ bv0 64)) true))))
 (let ((?x208 (bvmul node_0x7ffff1736d50 node_0x7ffff172e550)))
 (let (($x209 (= fmul_0x7ffff1737280 ?x208)))
 (let (($x215 (and $x209 $x214)))
 (let (($x131 (= node_0x7ffff1736d50 fmul_0x7ffff1736ef0)))
 (let (($x224 (or (or (= node_0x7ffff1733560 (_ bv0 64)) (= node_0x7ffff1733560 (_ bv0 64))) (and (distinct fmul_0x7ffff1736ef0 (_ bv0 64)) true))))
 (let ((?x219 (bvmul node_0x7ffff1733560 node_0x7ffff1733560)))
 (let (($x220 (= fmul_0x7ffff1736ef0 ?x219)))
 (let (($x225 (and $x220 $x224)))
 (let (($x524 (= node_0x7ffff1733560 fsub_0x7ffff1733700)))
 (let (($x231 (= fsub_0x7ffff1733700 (bvsub node_0x7ffff17330f0 carg_node_0x7ffff172b0e0))))
 (let (($x344 (= node_0x7ffff17330f0 LdMem_0x7ffff1733290)))
 (let (($x273 (= LdMem_0x7ffff1733290 StMem_0x1211b650)))
 (let ((?x128 (bvadd node_0x7ffff1736980 node_0x7ffff17370e0)))
 (let (($x129 (= fadd_0x7ffff1737650 ?x128)))
 (let (($x602 (= node_0x7ffff1736980 fmul_0x7ffff1736b20)))
 (let (($x199 (= carg_node_0x7ffff172b780 (_ bv0 64))))
 (let ((?x197 (bvmul carg_node_0x7ffff172b780 carg_node_0x7ffff172b780)))
 (let (($x203 (and (= fmul_0x7ffff172e360 ?x197) (or (or $x199 $x199) (and (distinct fmul_0x7ffff172e360 (_ bv0 64)) true)))))
 (let (($x562 (= node_0x7ffff172e1e0 fmul_0x7ffff172e360)))
 (let (($x140 (or (or (= node_0x7ffff17365f0 (_ bv0 64)) (= node_0x7ffff172e1e0 (_ bv0 64))) (and (distinct fmul_0x7ffff1736b20 (_ bv0 64)) true))))
 (let ((?x134 (bvmul node_0x7ffff17365f0 node_0x7ffff172e1e0)))
 (let (($x141 (and (= fmul_0x7ffff1736b20 ?x134) $x140)))
 (let (($x588 (= node_0x7ffff17365f0 fmul_0x7ffff1736790)))
 (let (($x150 (or (or (= node_0x7ffff1732920 (_ bv0 64)) (= node_0x7ffff1732920 (_ bv0 64))) (and (distinct fmul_0x7ffff1736790 (_ bv0 64)) true))))
 (let ((?x145 (bvmul node_0x7ffff1732920 node_0x7ffff1732920)))
 (let (($x151 (and (= fmul_0x7ffff1736790 ?x145) $x150)))
 (let (($x603 (= node_0x7ffff1732920 fsub_0x7ffff1732ac0)))
 (let (($x157 (= fsub_0x7ffff1732ac0 (bvsub node_0x7ffff17324d0 carg_node_0x7ffff172b590))))
 (let (($x577 (= node_0x7ffff17324d0 LdMem_0x7ffff1732650)))
 (let (($x565 (= LdMem_0x7ffff1732650 StMem_0x1211be10)))
 (and (or (not (= R0x7ffff172aca0 (_ bv1 1))) $x565) $x565 (= StMem_0x1211be10 pcso_node_0x1211bc60) $x577 $x157 $x603 $x151 $x588 $x141 $x562 $x203 $x602 $x129 (or (not (= R0x7ffff172aca0 (_ bv1 1))) $x273) $x273 (= StMem_0x1211b650 pcso_node_0x1211b470) $x344 $x231 $x524 $x225 $x131 $x215 $x544 $x248 $x563 $x598 $x123 $x272 $x256 $x580))))))))))))))))))))))))))))))))))))))))))))))
(assert
 (= carg_node_0x7ffff06e17e0_CS0x4148268 node_0x7ffff1736220))
(assert
 (let (($x161 (= node_0x7ffff1736220 fmul_0x7ffff17363c0)))
 (let (($x312 (or (or (= (_ bv2 64) (_ bv0 64)) (= node_0x7ffff1735d10 (_ bv0 64))) (and (distinct fmul_0x7ffff17363c0 (_ bv0 64)) true))))
 (let (($x313 (and (= fmul_0x7ffff17363c0 (bvmul (_ bv2 64) node_0x7ffff1735d10)) $x312)))
 (let (($x610 (= node_0x7ffff1735d10 fadd_0x7ffff1735eb0)))
 (let (($x169 (= node_0x7ffff1735940 fmul_0x7ffff1735ae0)))
 (let (($x355 (or (or (= node_0x7ffff1735570 (_ bv0 64)) (= node_0x7ffff172e550 (_ bv0 64))) (and (distinct fmul_0x7ffff1735ae0 (_ bv0 64)) true))))
 (let (($x351 (= fmul_0x7ffff1735ae0 (bvmul node_0x7ffff1735570 node_0x7ffff172e550))))
 (let (($x356 (and $x351 $x355)))
 (let (($x289 (= node_0x7ffff1735570 fmul_0x7ffff1735710)))
 (let (($x365 (or (or (= node_0x7ffff1735100 (_ bv0 64)) (= node_0x7ffff1733560 (_ bv0 64))) (and (distinct fmul_0x7ffff1735710 (_ bv0 64)) true))))
 (let (($x361 (= fmul_0x7ffff1735710 (bvmul node_0x7ffff1735100 node_0x7ffff1733560))))
 (let (($x366 (and $x361 $x365)))
 (let (($x257 (= node_0x7ffff1735100 LdMem_0x7ffff17305e0)))
 (let (($x227 (= LdMem_0x7ffff17305e0 StMem_0x12117fc0)))
 (let ((?x318 (bvadd node_0x7ffff1734930 node_0x7ffff1735940)))
 (let (($x319 (= fadd_0x7ffff1735eb0 ?x318)))
 (let (($x243029 (= node_0x7ffff1734930 fmul_0x7ffff1734ad0)))
 (let (($x328 (or (or (= node_0x7ffff1734150 (_ bv0 64)) (= node_0x7ffff172e1e0 (_ bv0 64))) (and (distinct fmul_0x7ffff1734ad0 (_ bv0 64)) true))))
 (let (($x324 (= fmul_0x7ffff1734ad0 (bvmul node_0x7ffff1734150 node_0x7ffff172e1e0))))
 (let (($x329 (and $x324 $x328)))
 (let (($x521 (= node_0x7ffff1734150 fmul_0x7ffff1734700)))
 (let (($x338 (or (or (= node_0x7ffff1733d30 (_ bv0 64)) (= node_0x7ffff1732920 (_ bv0 64))) (and (distinct fmul_0x7ffff1734700 (_ bv0 64)) true))))
 (let (($x334 (= fmul_0x7ffff1734700 (bvmul node_0x7ffff1733d30 node_0x7ffff1732920))))
 (let (($x339 (and $x334 $x338)))
 (let (($x500 (= node_0x7ffff1733d30 LdMem_0x7ffff172ed80)))
 (let (($x498 (= LdMem_0x7ffff172ed80 StMem_0x121187c0)))
 (and (or (not (= R0x7ffff172aca0 (_ bv1 1))) $x498) $x498 (= StMem_0x121187c0 pcso_node_0x12118610) $x500 $x339 $x521 $x329 $x243029 $x319 (or (not (= R0x7ffff172aca0 (_ bv1 1))) $x227) $x227 (= StMem_0x12117fc0 pcso_node_0x12117e10) $x257 $x366 $x289 $x356 $x169 $x610 $x313 $x161))))))))))))))))))))))))))))
(assert
 (= carg_node_0x7ffff06e1570_CS0x4148268 node_0x7ffff1731ac0))
(assert
 (let (($x303 (= node_0x7ffff1731ac0 fadd_0x7ffff1731c60)))
 (let (($x117 (= node_0x7ffff1731510 fmul_0x7ffff1731890)))
 (let (($x445 (or (or (= node_0x7ffff1731140 (_ bv0 64)) (= node_0x7ffff172e550 (_ bv0 64))) (and (distinct fmul_0x7ffff1731890 (_ bv0 64)) true))))
 (let (($x441 (= fmul_0x7ffff1731890 (bvmul node_0x7ffff1731140 node_0x7ffff172e550))))
 (let (($x446 (and $x441 $x445)))
 (let (($x301 (= node_0x7ffff1731140 fmul_0x7ffff17312e0)))
 (let (($x457 (or (or (= node_0x7ffff1730440 (_ bv0 64)) (= node_0x7ffff1730cd0 (_ bv0 64))) (and (distinct fmul_0x7ffff17312e0 (_ bv0 64)) true))))
 (let (($x452 (= fmul_0x7ffff17312e0 (bvmul node_0x7ffff1730440 node_0x7ffff1730cd0))))
 (let (($x458 (and $x452 $x457)))
 (let ((?x411 (bvadd node_0x7ffff172fc50 node_0x7ffff1731510)))
 (let (($x412 (= fadd_0x7ffff1731c60 ?x411)))
 (let (($x522 (= node_0x7ffff172fc50 fmul_0x7ffff172fdf0)))
 (let (($x421 (or (or (= node_0x7ffff172f880 (_ bv0 64)) (= node_0x7ffff172e1e0 (_ bv0 64))) (and (distinct fmul_0x7ffff172fdf0 (_ bv0 64)) true))))
 (let (($x417 (= fmul_0x7ffff172fdf0 (bvmul node_0x7ffff172f880 node_0x7ffff172e1e0))))
 (let (($x422 (and $x417 $x421)))
 (let (($x358 (= node_0x7ffff172f880 fmul_0x7ffff172fa20)))
 (let (($x433 (or (or (= node_0x7ffff172ec00 (_ bv0 64)) (= node_0x7ffff172f410 (_ bv0 64))) (and (distinct fmul_0x7ffff172fa20 (_ bv0 64)) true))))
 (let (($x428 (= fmul_0x7ffff172fa20 (bvmul node_0x7ffff172ec00 node_0x7ffff172f410))))
 (let (($x434 (and $x428 $x433)))
 (and $x434 (= node_0x7ffff172ec00 LdMem_0x7ffff172ed80) (= node_0x7ffff172f410 LdMem_0x7ffff172ed80) $x358 $x422 $x522 $x412 $x458 (= node_0x7ffff1730440 LdMem_0x7ffff17305e0) (= node_0x7ffff1730cd0 LdMem_0x7ffff17305e0) $x301 $x446 $x117 $x303)))))))))))))))))))))
(assert
 (= return_node_0x7ffff06e1fc0_CS0x4148268 ccso_node_0x7ffff1738220))
(assert
 (= parg_node_0x107ae730_CS0x4146978 node_0x1211b120))
(assert
 (let (($x32 (= node_0x1211b120 LdMem_0x1211aad0)))
 (let (($x343 (= LdMem_0x1211aad0 StMem_0x1211ac40)))
 (and (or (not (= R0x7ffff172aca0 (_ bv1 1))) $x343) $x343 (= StMem_0x1211ac40 parg_node_0x1211adf0) $x32))))
(assert
 (= node_0x107b0280_CS0x4146978 pcso_node_0x1211bc60))
(assert
 (= parg_node_0x107adc10_CS0x4146978 node_0x1211c2f0))
(assert
 (let (($x235 (= node_0x1211c2f0 LdMem_0x12119f60)))
 (let (($x119 (= LdMem_0x12119f60 StMem_0x1211a0a0)))
 (and (or (not (= R0x7ffff172aca0 (_ bv1 1))) $x119) $x119 (= StMem_0x1211a0a0 parg_node_0x1211a1b0) $x235))))
(assert
 (= node_0x107af910_CS0x4146978 pcso_node_0x1211b470))
(assert
 (= parg_node_0x107b61b0_CS0x41455c8 node_0x12119e20))
(assert
 (let (($x195 (= node_0x12119e20 LdMem_0x12117a90)))
 (let (($x464 (= LdMem_0x12117a90 StMem_0x12117bd0)))
 (and (or (not (= R0x7ffff172aca0 (_ bv1 1))) $x464) $x464 (= StMem_0x12117bd0 parg_node_0x12117ce0) $x195))))
(assert
 (= node_0x107b7d30_CS0x41455c8 pcso_node_0x12118610))
(assert
 (= parg_node_0x107b5690_CS0x41455c8 node_0x7c37ea0))
(assert
 (let (($x507 (= node_0x7c37ea0 LdMem_0x12117710)))
 (let (($x193 (= LdMem_0x12117710 StMem_0x12117850)))
 (and (or (not (= R0x7ffff172aca0 (_ bv1 1))) $x193) $x193 (= StMem_0x12117850 parg_node_0x12117960) $x507))))
(assert
 (= node_0x107b7470_CS0x41455c8 pcso_node_0x12117e10))
(assert
 (and (distinct carg_node_0x7ffff172be90 (_ bv0 64)) true))
(maximize node_0x7ffff172f410)
(minimize LdMem_0x7ffff173ac30)
(maximize carg_node_0x7ffff172b590)
(maximize node_0x7ffff1734150)
(minimize parg_node_0x12117ce0)
(minimize StMem_0x1211be10)
(maximize carg_node_0x7ffff06e1b40_CS0x4148268)
(minimize fmul_0x7ffff172fa20)
(maximize LdMem_0x7ffff173ac30)
(maximize fmul_0x7ffff172fa20)
(minimize fmul_0x7ffff1737a20)
(minimize LdMem_0x12117a90)
(maximize parg_node_0x107ae730_CS0x4146978)
(maximize node_0x7c37ea0)
(minimize node_0x7ffff1733560)
(minimize node_0x7ffff17365f0)
(minimize LdMem_0x7ffff17305e0)
(minimize fadd_0x7ffff1731c60)
(maximize node_0x7ffff1737880)
(maximize carg_node_0x7ffff06e1ce0_CS0x4148268)
(check-sat)
(get-objectives)
